c SAT Generator for power-law distributed variable frequencies
c -g u -v 20 -c 91 -k 3 -p 2.750000 -b 3.200000 -f /home/schmidt/Devel/ni-kop-sat/data/ensemble/ruf20-91/ruf20-91-165 -u 1 -U 1 -s 3296353083
p cnf 20 91
1 -11 13 0
8 12 -15 0
-5 8 9 0
-5 12 -14 0
9 -14 -19 0
-2 -15 -18 0
3 -8 -19 0
-3 5 17 0
11 -18 -19 0
-5 -10 16 0
-5 12 16 0
6 14 -19 0
-5 8 -12 0
-6 19 -20 0
8 -14 19 0
5 -7 13 0
8 16 19 0
1 -16 -18 0
-6 -12 19 0
7 10 20 0
-6 9 -13 0
-3 -6 -17 0
1 -3 9 0
-7 -11 15 0
-3 5 8 0
-3 -12 -13 0
-6 10 13 0
17 -19 -20 0
-8 11 -16 0
1 12 16 0
-2 -12 15 0
-2 -6 -12 0
10 -13 -19 0
6 17 -19 0
-1 2 -13 0
1 -3 18 0
-2 -3 19 0
-3 -8 11 0
1 12 15 0
6 7 9 0
-5 -11 16 0
-6 -11 18 0
-11 -16 20 0
-1 8 10 0
-1 7 -19 0
4 -7 -14 0
-7 11 13 0
-5 11 -20 0
13 -17 -18 0
-4 -17 -20 0
-3 -14 -18 0
-4 -10 17 0
4 -14 20 0
6 14 15 0
4 -16 -18 0
-3 8 13 0
4 10 -17 0
-2 16 20 0
-4 19 20 0
2 -7 -11 0
4 -18 -19 0
-9 11 18 0
-1 -7 10 0
-8 -15 20 0
5 -14 19 0
-8 12 13 0
-10 -11 17 0
-5 -8 -19 0
-3 6 13 0
-9 11 19 0
2 -12 13 0
-6 -15 -18 0
3 -5 7 0
5 -6 -17 0
1 -8 10 0
-4 -13 -16 0
1 8 -12 0
1 -11 16 0
9 -15 20 0
-13 -17 -20 0
-6 18 -20 0
-5 -6 12 0
-2 -14 -15 0
-4 -6 -8 0
8 -12 -14 0
11 12 -17 0
5 6 -10 0
2 11 -19 0
7 -8 -10 0
6 16 17 0
-7 -19 20 0
